p cnf 29 76
a 2 23 0
e 1 3 4 5 6 7 8 9 10 11 12 13 14 15 16 17 18 19 20 21 22 24 25 26 27 28 29 0
-3 -1 0
-3 2 0
1 -2 3 0
4 5 -6 0
-4 -5 -6 0
4 -5 6 0
-4 5 6 0
7 3 0
7 -6 0
-3 6 -7 0
10 -1 0
10 9 0
1 -9 -10 0
-12 -10 0
-12 -11 0
10 11 12 0
-13 12 0
-13 11 0
-12 -11 13 0
-14 8 0
-14 13 0
-8 -13 14 0
15 -7 0
15 14 0
7 -14 -15 0
-10 1 -16 0
10 -1 -16 0
-10 -1 16 0
10 1 16 0
-16 12 -17 0
16 -12 -17 0
-16 -12 17 0
16 12 17 0
-17 12 -18 0
17 -12 -18 0
-17 -12 18 0
17 12 18 0
19 12 0
19 10 0
-12 -10 -19 0
21 -5 0
21 20 0
5 -20 -21 0
-22 -4 0
-22 -12 0
4 12 22 0
-21 -22 -23 0
21 22 -23 0
-21 22 23 0
21 -22 23 0
-24 -19 0
-24 23 0
19 -23 24 0
25 18 0
25 24 0
-18 -24 -25 0
-15 25 -26 0
15 -25 -26 0
-15 -25 26 0
15 25 26 0
-27 16 0
-27 -2 0
-16 2 27 0
27 28 0
-27 28 0
29 26 0
29 28 0
-26 -28 -29 0
-18 -6 -20 0
-26 -18 20 0
-29 -18 8 14 -7 0
-5 22 29 3 -7 -12 0
16 10 -28 -15 27 26 14 0
-16 -4 3 -17 -2 9 0
-20 -9 -6 10 0
29 0
